Nodes = {"Palo-Alto", "San-Diego", "Boulder", "Washington", "Atlanta", "Urbana-Champaign", "Ann-Arbor", "Lincoln", "Princeton", "Ithaca", "Pittsburgh", "Houston", "Salt-Lake-City", "Seattle"};
Arcs = {<"Palo-Alto","San-Diego",35,0>, <"Palo-Alto","Boulder",35,17>, <"Palo-Alto","Washington",35,45>, <"Palo-Alto","Atlanta",35,38>, <"Palo-Alto","Urbana-Champaign",35,34>, <"Palo-Alto","Ann-Arbor",35,39>, <"Palo-Alto","Lincoln",35,26>, <"Palo-Alto","Princeton",35,48>, <"Palo-Alto","Ithaca",35,46>, <"Palo-Alto","Pittsburgh",35,43>, <"Palo-Alto","Houston",35,28>, <"Palo-Alto","Salt-Lake-City",35,0>, <"Palo-Alto","Seattle",35,0>, <"San-Diego","Palo-Alto",35,0>, <"San-Diego","Boulder",35,14>, <"San-Diego","Washington",35,41>, <"San-Diego","Atlanta",35,33>, <"San-Diego","Urbana-Champaign",35,30>, <"San-Diego","Ann-Arbor",35,35>, <"San-Diego","Lincoln",35,22>, <"San-Diego","Princeton",35,43>, <"San-Diego","Ithaca",35,42>, <"San-Diego","Pittsburgh",35,38>, <"San-Diego","Houston",35,0>, <"San-Diego","Salt-Lake-City",35,10>, <"San-Diego","Seattle",35,0>, <"Boulder","Palo-Alto",35,17>, <"Boulder","San-Diego",35,14>, <"Boulder","Washington",35,28>, <"Boulder","Atlanta",35,22>, <"Boulder","Urbana-Champaign",35,17>, <"Boulder","Ann-Arbor",35,22>, <"Boulder","Lincoln",35,0>, <"Boulder","Princeton",35,31>, <"Boulder","Ithaca",35,29>, <"Boulder","Pittsburgh",35,26>, <"Boulder","Houston",35,0>, <"Boulder","Salt-Lake-City",35,0>, <"Boulder","Seattle",35,19>, <"Washington","Palo-Alto",35,45>, <"Washington","San-Diego",35,41>, <"Washington","Boulder",35,28>, <"Washington","Atlanta",35,9>, <"Washington","Urbana-Champaign",35,11>, <"Washington","Ann-Arbor",35,7>, <"Washington","Lincoln",35,19>, <"Washington","Princeton",35,0>, <"Washington","Ithaca",35,0>, <"Washington","Pittsburgh",35,3>, <"Washington","Houston",35,0>, <"Washington","Salt-Lake-City",35,35>, <"Washington","Seattle",35,46>, <"Atlanta","Palo-Alto",35,38>, <"Atlanta","San-Diego",35,33>, <"Atlanta","Boulder",35,22>, <"Atlanta","Washington",35,9>, <"Atlanta","Urbana-Champaign",35,8>, <"Atlanta","Ann-Arbor",35,9>, <"Atlanta","Lincoln",35,14>, <"Atlanta","Princeton",35,12>, <"Atlanta","Ithaca",35,12>, <"Atlanta","Pittsburgh",35,0>, <"Atlanta","Houston",35,0>, <"Atlanta","Salt-Lake-City",35,28>, <"Atlanta","Seattle",35,40>, <"Urbana-Champaign","Palo-Alto",35,34>, <"Urbana-Champaign","San-Diego",35,30>, <"Urbana-Champaign","Boulder",35,17>, <"Urbana-Champaign","Washington",35,11>, <"Urbana-Champaign","Atlanta",35,8>, <"Urbana-Champaign","Ann-Arbor",35,5>, <"Urbana-Champaign","Lincoln",35,0>, <"Urbana-Champaign","Princeton",35,14>, <"Urbana-Champaign","Ithaca",35,12>, <"Urbana-Champaign","Pittsburgh",35,0>, <"Urbana-Champaign","Houston",35,13>, <"Urbana-Champaign","Salt-Lake-City",35,23>, <"Urbana-Champaign","Seattle",35,0>, <"Ann-Arbor","Palo-Alto",35,39>, <"Ann-Arbor","San-Diego",35,35>, <"Ann-Arbor","Boulder",35,22>, <"Ann-Arbor","Washington",35,7>, <"Ann-Arbor","Atlanta",35,9>, <"Ann-Arbor","Urbana-Champaign",35,5>, <"Ann-Arbor","Lincoln",35,13>, <"Ann-Arbor","Princeton",35,0>, <"Ann-Arbor","Ithaca",35,0>, <"Ann-Arbor","Pittsburgh",35,4>, <"Ann-Arbor","Houston",35,17>, <"Ann-Arbor","Salt-Lake-City",35,0>, <"Ann-Arbor","Seattle",35,39>, <"Lincoln","Palo-Alto",35,26>, <"Lincoln","San-Diego",35,22>, <"Lincoln","Boulder",35,0>, <"Lincoln","Washington",35,19>, <"Lincoln","Atlanta",35,14>, <"Lincoln","Urbana-Champaign",35,0>, <"Lincoln","Ann-Arbor",35,13>, <"Lincoln","Princeton",35,22>, <"Lincoln","Ithaca",35,20>, <"Lincoln","Pittsburgh",35,17>, <"Lincoln","Houston",35,11>, <"Lincoln","Salt-Lake-City",35,15>, <"Lincoln","Seattle",35,27>, <"Princeton","Palo-Alto",35,48>, <"Princeton","San-Diego",35,43>, <"Princeton","Boulder",35,31>, <"Princeton","Washington",35,0>, <"Princeton","Atlanta",35,12>, <"Princeton","Urbana-Champaign",35,14>, <"Princeton","Ann-Arbor",35,0>, <"Princeton","Lincoln",35,22>, <"Princeton","Ithaca",35,3>, <"Princeton","Pittsburgh",35,0>, <"Princeton","Houston",35,23>, <"Princeton","Salt-Lake-City",35,37>, <"Princeton","Seattle",35,48>, <"Ithaca","Palo-Alto",35,46>, <"Ithaca","San-Diego",35,42>, <"Ithaca","Boulder",35,29>, <"Ithaca","Washington",35,0>, <"Ithaca","Atlanta",35,12>, <"Ithaca","Urbana-Champaign",35,12>, <"Ithaca","Ann-Arbor",35,0>, <"Ithaca","Lincoln",35,20>, <"Ithaca","Princeton",35,3>, <"Ithaca","Pittsburgh",35,0>, <"Ithaca","Houston",35,23>, <"Ithaca","Salt-Lake-City",35,35>, <"Ithaca","Seattle",35,46>, <"Pittsburgh","Palo-Alto",35,43>, <"Pittsburgh","San-Diego",35,38>, <"Pittsburgh","Boulder",35,26>, <"Pittsburgh","Washington",35,3>, <"Pittsburgh","Atlanta",35,0>, <"Pittsburgh","Urbana-Champaign",35,0>, <"Pittsburgh","Ann-Arbor",35,4>, <"Pittsburgh","Lincoln",35,17>, <"Pittsburgh","Princeton",35,0>, <"Pittsburgh","Ithaca",35,0>, <"Pittsburgh","Houston",35,19>, <"Pittsburgh","Salt-Lake-City",35,32>, <"Pittsburgh","Seattle",35,43>, <"Houston","Palo-Alto",35,28>, <"Houston","San-Diego",35,0>, <"Houston","Boulder",35,0>, <"Houston","Washington",35,0>, <"Houston","Atlanta",35,0>, <"Houston","Urbana-Champaign",35,13>, <"Houston","Ann-Arbor",35,17>, <"Houston","Lincoln",35,11>, <"Houston","Princeton",35,23>, <"Houston","Ithaca",35,23>, <"Houston","Pittsburgh",35,19>, <"Houston","Salt-Lake-City",35,20>, <"Houston","Seattle",35,32>, <"Salt-Lake-City","Palo-Alto",35,0>, <"Salt-Lake-City","San-Diego",35,10>, <"Salt-Lake-City","Boulder",35,0>, <"Salt-Lake-City","Washington",35,35>, <"Salt-Lake-City","Atlanta",35,28>, <"Salt-Lake-City","Urbana-Champaign",35,23>, <"Salt-Lake-City","Ann-Arbor",35,0>, <"Salt-Lake-City","Lincoln",35,15>, <"Salt-Lake-City","Princeton",35,37>, <"Salt-Lake-City","Ithaca",35,35>, <"Salt-Lake-City","Pittsburgh",35,32>, <"Salt-Lake-City","Houston",35,20>, <"Salt-Lake-City","Seattle",35,13>, <"Seattle","Palo-Alto",35,0>, <"Seattle","San-Diego",35,0>, <"Seattle","Boulder",35,19>, <"Seattle","Washington",35,46>, <"Seattle","Atlanta",35,40>, <"Seattle","Urbana-Champaign",35,0>, <"Seattle","Ann-Arbor",35,39>, <"Seattle","Lincoln",35,27>, <"Seattle","Princeton",35,48>, <"Seattle","Ithaca",35,46>, <"Seattle","Pittsburgh",35,43>, <"Seattle","Houston",35,32>, <"Seattle","Salt-Lake-City",35,13>};
Demands = {<"Palo-Alto","San-Diego",2,0>, <"Palo-Alto","Boulder",4,0>, <"Palo-Alto","Washington",6,0>, <"Palo-Alto","Atlanta",8,0>, <"Palo-Alto","Urbana-Champaign",10,0>, <"Palo-Alto","Ann-Arbor",12,0>, <"Palo-Alto","Lincoln",14,0>, <"Palo-Alto","Princeton",16,0>, <"Palo-Alto","Ithaca",18,0>, <"Palo-Alto","Pittsburgh",20,0>, <"Palo-Alto","Houston",22,0>, <"Palo-Alto","Salt-Lake-City",24,0>, <"Palo-Alto","Seattle",26,0>, <"San-Diego","Palo-Alto",2,0>, <"San-Diego","Boulder",2,0>, <"San-Diego","Washington",4,0>, <"San-Diego","Atlanta",6,0>, <"San-Diego","Urbana-Champaign",8,0>, <"San-Diego","Ann-Arbor",10,0>, <"San-Diego","Lincoln",12,0>, <"San-Diego","Princeton",14,0>, <"San-Diego","Ithaca",16,0>, <"San-Diego","Pittsburgh",18,0>, <"San-Diego","Houston",20,0>, <"San-Diego","Salt-Lake-City",22,0>, <"San-Diego","Seattle",24,0>, <"Boulder","Palo-Alto",4,0>, <"Boulder","San-Diego",2,0>, <"Boulder","Washington",2,0>, <"Boulder","Atlanta",4,0>, <"Boulder","Urbana-Champaign",6,0>, <"Boulder","Ann-Arbor",8,0>, <"Boulder","Lincoln",10,0>, <"Boulder","Princeton",12,0>, <"Boulder","Ithaca",14,0>, <"Boulder","Pittsburgh",16,0>, <"Boulder","Houston",18,0>, <"Boulder","Salt-Lake-City",20,0>, <"Boulder","Seattle",22,0>, <"Washington","Palo-Alto",6,0>, <"Washington","San-Diego",4,0>, <"Washington","Boulder",2,0>, <"Washington","Atlanta",2,0>, <"Washington","Urbana-Champaign",4,0>, <"Washington","Ann-Arbor",6,0>, <"Washington","Lincoln",8,0>, <"Washington","Princeton",10,0>, <"Washington","Ithaca",12,0>, <"Washington","Pittsburgh",14,0>, <"Washington","Houston",16,1>, <"Washington","Salt-Lake-City",18,0>, <"Washington","Seattle",20,0>, <"Atlanta","Palo-Alto",8,0>, <"Atlanta","San-Diego",6,0>, <"Atlanta","Boulder",4,0>, <"Atlanta","Washington",2,0>, <"Atlanta","Urbana-Champaign",2,0>, <"Atlanta","Ann-Arbor",4,0>, <"Atlanta","Lincoln",6,0>, <"Atlanta","Princeton",8,0>, <"Atlanta","Ithaca",10,1>, <"Atlanta","Pittsburgh",12,0>, <"Atlanta","Houston",14,0>, <"Atlanta","Salt-Lake-City",16,0>, <"Atlanta","Seattle",18,0>, <"Urbana-Champaign","Palo-Alto",10,0>, <"Urbana-Champaign","San-Diego",8,0>, <"Urbana-Champaign","Boulder",6,0>, <"Urbana-Champaign","Washington",4,0>, <"Urbana-Champaign","Atlanta",2,0>, <"Urbana-Champaign","Ann-Arbor",2,0>, <"Urbana-Champaign","Lincoln",4,0>, <"Urbana-Champaign","Princeton",6,0>, <"Urbana-Champaign","Ithaca",8,0>, <"Urbana-Champaign","Pittsburgh",10,0>, <"Urbana-Champaign","Houston",12,0>, <"Urbana-Champaign","Salt-Lake-City",14,0>, <"Urbana-Champaign","Seattle",16,0>, <"Ann-Arbor","Palo-Alto",12,0>, <"Ann-Arbor","San-Diego",10,0>, <"Ann-Arbor","Boulder",8,0>, <"Ann-Arbor","Washington",6,0>, <"Ann-Arbor","Atlanta",4,0>, <"Ann-Arbor","Urbana-Champaign",2,0>, <"Ann-Arbor","Lincoln",2,0>, <"Ann-Arbor","Princeton",4,0>, <"Ann-Arbor","Ithaca",6,0>, <"Ann-Arbor","Pittsburgh",8,0>, <"Ann-Arbor","Houston",10,0>, <"Ann-Arbor","Salt-Lake-City",12,0>, <"Ann-Arbor","Seattle",14,0>, <"Lincoln","Palo-Alto",14,0>, <"Lincoln","San-Diego",12,0>, <"Lincoln","Boulder",10,0>, <"Lincoln","Washington",8,0>, <"Lincoln","Atlanta",6,1>, <"Lincoln","Urbana-Champaign",4,0>, <"Lincoln","Ann-Arbor",2,0>, <"Lincoln","Princeton",2,1>, <"Lincoln","Ithaca",4,0>, <"Lincoln","Pittsburgh",6,0>, <"Lincoln","Houston",8,0>, <"Lincoln","Salt-Lake-City",10,0>, <"Lincoln","Seattle",12,0>, <"Princeton","Palo-Alto",16,0>, <"Princeton","San-Diego",14,0>, <"Princeton","Boulder",12,0>, <"Princeton","Washington",10,0>, <"Princeton","Atlanta",8,0>, <"Princeton","Urbana-Champaign",6,0>, <"Princeton","Ann-Arbor",4,0>, <"Princeton","Lincoln",2,0>, <"Princeton","Ithaca",2,0>, <"Princeton","Pittsburgh",4,0>, <"Princeton","Houston",6,0>, <"Princeton","Salt-Lake-City",8,0>, <"Princeton","Seattle",10,0>, <"Ithaca","Palo-Alto",18,0>, <"Ithaca","San-Diego",16,0>, <"Ithaca","Boulder",14,0>, <"Ithaca","Washington",12,0>, <"Ithaca","Atlanta",10,0>, <"Ithaca","Urbana-Champaign",8,0>, <"Ithaca","Ann-Arbor",6,0>, <"Ithaca","Lincoln",4,0>, <"Ithaca","Princeton",2,0>, <"Ithaca","Pittsburgh",2,0>, <"Ithaca","Houston",4,0>, <"Ithaca","Salt-Lake-City",6,0>, <"Ithaca","Seattle",8,0>, <"Pittsburgh","Palo-Alto",20,0>, <"Pittsburgh","San-Diego",18,0>, <"Pittsburgh","Boulder",16,0>, <"Pittsburgh","Washington",14,0>, <"Pittsburgh","Atlanta",12,0>, <"Pittsburgh","Urbana-Champaign",10,0>, <"Pittsburgh","Ann-Arbor",8,0>, <"Pittsburgh","Lincoln",6,0>, <"Pittsburgh","Princeton",4,0>, <"Pittsburgh","Ithaca",2,0>, <"Pittsburgh","Houston",2,0>, <"Pittsburgh","Salt-Lake-City",4,0>, <"Pittsburgh","Seattle",6,0>, <"Houston","Palo-Alto",22,0>, <"Houston","San-Diego",20,0>, <"Houston","Boulder",18,0>, <"Houston","Washington",16,0>, <"Houston","Atlanta",14,0>, <"Houston","Urbana-Champaign",12,0>, <"Houston","Ann-Arbor",10,0>, <"Houston","Lincoln",8,0>, <"Houston","Princeton",6,0>, <"Houston","Ithaca",4,0>, <"Houston","Pittsburgh",2,0>, <"Houston","Salt-Lake-City",2,0>, <"Houston","Seattle",4,0>, <"Salt-Lake-City","Palo-Alto",24,0>, <"Salt-Lake-City","San-Diego",22,0>, <"Salt-Lake-City","Boulder",20,0>, <"Salt-Lake-City","Washington",18,0>, <"Salt-Lake-City","Atlanta",16,0>, <"Salt-Lake-City","Urbana-Champaign",14,0>, <"Salt-Lake-City","Ann-Arbor",12,0>, <"Salt-Lake-City","Lincoln",10,0>, <"Salt-Lake-City","Princeton",8,0>, <"Salt-Lake-City","Ithaca",6,0>, <"Salt-Lake-City","Pittsburgh",4,0>, <"Salt-Lake-City","Houston",2,0>, <"Salt-Lake-City","Seattle",2,0>, <"Seattle","Palo-Alto",26,0>, <"Seattle","San-Diego",24,0>, <"Seattle","Boulder",22,0>, <"Seattle","Washington",20,0>, <"Seattle","Atlanta",18,0>, <"Seattle","Urbana-Champaign",16,0>, <"Seattle","Ann-Arbor",14,0>, <"Seattle","Lincoln",12,0>, <"Seattle","Princeton",10,0>, <"Seattle","Ithaca",8,0>, <"Seattle","Pittsburgh",6,0>, <"Seattle","Houston",4,0>, <"Seattle","Salt-Lake-City",2,0>, <"Lincoln","Princeton",2,1>, <"Atlanta","Ithaca",10,1>, <"Washington","Houston",16,1>, <"Lincoln","Atlanta",6,1>};
